\ENCODING=ISO-8859-1
\Problem name: IloCplex

Minimize
 obj1: 999999 x_0_0_0 + 58.5234995535981 x_0_0_1 + 57.0087712549569 x_0_0_2
       + 55.7135531087365 x_0_0_3 + 52.2015325445527 x_0_0_4 + 52 x_0_0_5
       + 50.2891638427206 x_0_0_6 + 51.0783711564885 x_0_0_7
       + 51.478150704935 x_0_0_8 + 47.4341649025257 x_0_0_9
       + 58.5234995535981 x_0_1_0 + 999999 x_0_1_1 + 5 x_0_1_2 + 3 x_0_1_3
       + 7.07106781186548 x_0_1_4 + 7 x_0_1_5 + 8.60232526704263 x_0_1_6
       + 8 x_0_1_7 + 11.1803398874989 x_0_1_8 + 11.1803398874989 x_0_1_9
       + 57.0087712549569 x_0_2_0 + 5 x_0_2_1 + 999999 x_0_2_2
       + 5.8309518948453 x_0_2_3 + 5 x_0_2_4 + 8.60232526704263 x_0_2_5
       + 7 x_0_2_6 + 9.4339811320566 x_0_2_7 + 14.142135623731 x_0_2_8
       + 10 x_0_2_9 + 55.7135531087365 x_0_3_0 + 3 x_0_3_1
       + 5.8309518948453 x_0_3_2 + 999999 x_0_3_3 + 5.3851648071345 x_0_3_4
       + 4 x_0_3_5 + 6.40312423743285 x_0_3_6 + 5 x_0_3_7
       + 8.60232526704263 x_0_3_8 + 8.60232526704263 x_0_3_9
       + 52.2015325445527 x_0_4_0 + 7.07106781186548 x_0_4_1 + 5 x_0_4_2
       + 5.3851648071345 x_0_4_3 + 999999 x_0_4_4 + 5.3851648071345 x_0_4_5
       + 2 x_0_4_6 + 5.8309518948453 x_0_4_7 + 11.1803398874989 x_0_4_8
       + 5 x_0_4_9 + 52 x_0_5_0 + 7 x_0_5_1 + 8.60232526704263 x_0_5_2
       + 4 x_0_5_3 + 5.3851648071345 x_0_5_4 + 999999 x_0_5_5 + 5 x_0_5_6
       + x_0_5_7 + 5.8309518948453 x_0_5_8 + 5.8309518948453 x_0_5_9
       + 50.2891638427206 x_0_6_0 + 8.60232526704263 x_0_6_1 + 7 x_0_6_2
       + 6.40312423743285 x_0_6_3 + 2 x_0_6_4 + 5 x_0_6_5 + 999999 x_0_6_6
       + 5.09901951359278 x_0_6_7 + 10.4403065089106 x_0_6_8 + 3 x_0_6_9
       + 51.0783711564885 x_0_7_0 + 8 x_0_7_1 + 9.4339811320566 x_0_7_2
       + 5 x_0_7_3 + 5.8309518948453 x_0_7_4 + x_0_7_5
       + 5.09901951359278 x_0_7_6 + 999999 x_0_7_7 + 5.3851648071345 x_0_7_8
       + 5.3851648071345 x_0_7_9 + 51.478150704935 x_0_8_0
       + 11.1803398874989 x_0_8_1 + 14.142135623731 x_0_8_2
       + 8.60232526704263 x_0_8_3 + 11.1803398874989 x_0_8_4
       + 5.8309518948453 x_0_8_5 + 10.4403065089106 x_0_8_6
       + 5.3851648071345 x_0_8_7 + 999999 x_0_8_8 + 10 x_0_8_9
       + 47.4341649025257 x_0_9_0 + 11.1803398874989 x_0_9_1 + 10 x_0_9_2
       + 8.60232526704263 x_0_9_3 + 5 x_0_9_4 + 5.8309518948453 x_0_9_5
       + 3 x_0_9_6 + 5.3851648071345 x_0_9_7 + 10 x_0_9_8 + 999999 x_0_9_9
Subject To
 alguemChegaAoCliente_1#0:        = 0
 alguemChegaAoCliente_2#1:        = 0
 alguemChegaAoCliente_3#2:        = 0
 alguemChegaAoCliente_4#3:        = 0
 alguemChegaAoCliente_5#4:        = 0
 alguemChegaAoCliente_6#5:        = 0
 alguemChegaAoCliente_7#6:        = 0
 alguemChegaAoCliente_8#7:        = 0
 alguemChegaAoCliente_9#8:        = 0
 veiculo_dest_0#9:               <= -9
 alguemSaiDoCliente(1)#10:       z_0_1 + y_1  = 1
 alguemSaiDoCliente(2)#11:       z_0_2 + y_2  = 1
 alguemSaiDoCliente(3)#12:       z_0_3 + y_3  = 1
 alguemSaiDoCliente(4)#13:       z_0_4 + y_4  = 1
 alguemSaiDoCliente(5)#14:       z_0_5 + y_5  = 1
 alguemSaiDoCliente(6)#15:       z_0_6 + y_6  = 1
 alguemSaiDoCliente(7)#16:       z_0_7 + y_7  = 1
 alguemSaiDoCliente(8)#17:       z_0_8 + y_8  = 1
 alguemSaiDoCliente(9)#18:       z_0_9 + y_9  = 1
 veiculo_origin_0#19:            z_0_1 + z_0_2 + z_0_3 + z_0_4 + z_0_5 + z_0_6
                                 + z_0_7 + z_0_8 + z_0_9 + z_0_0 <= 0
 chegadaNoCliente_1_peloVehicle_0#20: x_0_0_1 + x_0_2_1 + x_0_3_1 + x_0_4_1
                                 + x_0_5_1 + x_0_6_1 + x_0_7_1 + x_0_8_1
                                 + x_0_9_1  = 1
 chegadaNoCliente_2_peloVehicle_0#21: x_0_0_2 + x_0_1_2 + x_0_3_2 + x_0_4_2
                                 + x_0_5_2 + x_0_6_2 + x_0_7_2 + x_0_8_2
                                 + x_0_9_2  = 1
 chegadaNoCliente_3_peloVehicle_0#22: x_0_0_3 + x_0_1_3 + x_0_2_3 + x_0_4_3
                                 + x_0_5_3 + x_0_6_3 + x_0_7_3 + x_0_8_3
                                 + x_0_9_3  = 1
 chegadaNoCliente_4_peloVehicle_0#23: x_0_0_4 + x_0_1_4 + x_0_2_4 + x_0_3_4
                                 + x_0_5_4 + x_0_6_4 + x_0_7_4 + x_0_8_4
                                 + x_0_9_4  = 1
 chegadaNoCliente_5_peloVehicle_0#24: x_0_0_5 + x_0_1_5 + x_0_2_5 + x_0_3_5
                                 + x_0_4_5 + x_0_6_5 + x_0_7_5 + x_0_8_5
                                 + x_0_9_5  = 1
 chegadaNoCliente_6_peloVehicle_0#25: x_0_0_6 + x_0_1_6 + x_0_2_6 + x_0_3_6
                                 + x_0_4_6 + x_0_5_6 + x_0_7_6 + x_0_8_6
                                 + x_0_9_6  = 1
 chegadaNoCliente_7_peloVehicle_0#26: x_0_0_7 + x_0_1_7 + x_0_2_7 + x_0_3_7
                                 + x_0_4_7 + x_0_5_7 + x_0_6_7 + x_0_8_7
                                 + x_0_9_7  = 1
 chegadaNoCliente_8_peloVehicle_0#27: x_0_0_8 + x_0_1_8 + x_0_2_8 + x_0_3_8
                                 + x_0_4_8 + x_0_5_8 + x_0_6_8 + x_0_7_8
                                 + x_0_9_8  = 1
 chegadaNoCliente_9_peloVehicle_0#28: x_0_0_9 + x_0_1_9 + x_0_2_9 + x_0_3_9
                                 + x_0_4_9 + x_0_5_9 + x_0_6_9 + x_0_7_9
                                 + x_0_8_9  = 1
 saidaDoCliente_0_peloVehicle_0#29: x_0_0_1 + x_0_0_2 + x_0_0_3 + x_0_0_4
                                 + x_0_0_5 + x_0_0_6 + x_0_0_7 + x_0_0_8
                                 + x_0_0_9 - z_0_0  = 0
 saidaDoCliente_1_peloVehicle_0#30: x_0_1_0 + x_0_1_2 + x_0_1_3 + x_0_1_4
                                 + x_0_1_5 + x_0_1_6 + x_0_1_7 + x_0_1_8
                                 + x_0_1_9 - z_0_1  = 0
 saidaDoCliente_2_peloVehicle_0#31: x_0_2_0 + x_0_2_1 + x_0_2_3 + x_0_2_4
                                 + x_0_2_5 + x_0_2_6 + x_0_2_7 + x_0_2_8
                                 + x_0_2_9 - z_0_2  = 0
 saidaDoCliente_3_peloVehicle_0#32: x_0_3_0 + x_0_3_1 + x_0_3_2 + x_0_3_4
                                 + x_0_3_5 + x_0_3_6 + x_0_3_7 + x_0_3_8
                                 + x_0_3_9 - z_0_3  = 0
 saidaDoCliente_4_peloVehicle_0#33: x_0_4_0 + x_0_4_1 + x_0_4_2 + x_0_4_3
                                 + x_0_4_5 + x_0_4_6 + x_0_4_7 + x_0_4_8
                                 + x_0_4_9 - z_0_4  = 0
 saidaDoCliente_5_peloVehicle_0#34: x_0_5_0 + x_0_5_1 + x_0_5_2 + x_0_5_3
                                 + x_0_5_4 + x_0_5_6 + x_0_5_7 + x_0_5_8
                                 + x_0_5_9 - z_0_5  = 0
 saidaDoCliente_6_peloVehicle_0#35: x_0_6_0 + x_0_6_1 + x_0_6_2 + x_0_6_3
                                 + x_0_6_4 + x_0_6_5 + x_0_6_7 + x_0_6_8
                                 + x_0_6_9 - z_0_6  = 0
 saidaDoCliente_7_peloVehicle_0#36: x_0_7_0 + x_0_7_1 + x_0_7_2 + x_0_7_3
                                 + x_0_7_4 + x_0_7_5 + x_0_7_6 + x_0_7_8
                                 + x_0_7_9 - z_0_7  = 0
 saidaDoCliente_8_peloVehicle_0#37: x_0_8_0 + x_0_8_1 + x_0_8_2 + x_0_8_3
                                 + x_0_8_4 + x_0_8_5 + x_0_8_6 + x_0_8_7
                                 + x_0_8_9 - z_0_8  = 0
 saidaDoCliente_9_peloVehicle_0#38: x_0_9_0 + x_0_9_1 + x_0_9_2 + x_0_9_3
                                 + x_0_9_4 + x_0_9_5 + x_0_9_6 + x_0_9_7
                                 + x_0_9_8 - z_0_9  = 0
 veiculo_0_utilizado#39:         x_0_0_0 + x_0_0_1 + x_0_0_2 + x_0_0_3
                                 + x_0_0_4 + x_0_0_5 + x_0_0_6 + x_0_0_7
                                 + x_0_0_8 + x_0_0_9 + x_0_1_0 + x_0_1_1
                                 + x_0_1_2 + x_0_1_3 + x_0_1_4 + x_0_1_5
                                 + x_0_1_6 + x_0_1_7 + x_0_1_8 + x_0_1_9
                                 + x_0_2_0 + x_0_2_1 + x_0_2_2 + x_0_2_3
                                 + x_0_2_4 + x_0_2_5 + x_0_2_6 + x_0_2_7
                                 + x_0_2_8 + x_0_2_9 + x_0_3_0 + x_0_3_1
                                 + x_0_3_2 + x_0_3_3 + x_0_3_4 + x_0_3_5
                                 + x_0_3_6 + x_0_3_7 + x_0_3_8 + x_0_3_9
                                 + x_0_4_0 + x_0_4_1 + x_0_4_2 + x_0_4_3
                                 + x_0_4_4 + x_0_4_5 + x_0_4_6 + x_0_4_7
                                 + x_0_4_8 + x_0_4_9 + x_0_5_0 + x_0_5_1
                                 + x_0_5_2 + x_0_5_3 + x_0_5_4 + x_0_5_5
                                 + x_0_5_6 + x_0_5_7 + x_0_5_8 + x_0_5_9
                                 + x_0_6_0 + x_0_6_1 + x_0_6_2 + x_0_6_3
                                 + x_0_6_4 + x_0_6_5 + x_0_6_6 + x_0_6_7
                                 + x_0_6_8 + x_0_6_9 + x_0_7_0 + x_0_7_1
                                 + x_0_7_2 + x_0_7_3 + x_0_7_4 + x_0_7_5
                                 + x_0_7_6 + x_0_7_7 + x_0_7_8 + x_0_7_9
                                 + x_0_8_0 + x_0_8_1 + x_0_8_2 + x_0_8_3
                                 + x_0_8_4 + x_0_8_5 + x_0_8_6 + x_0_8_7
                                 + x_0_8_8 + x_0_8_9 + x_0_9_0 + x_0_9_1
                                 + x_0_9_2 + x_0_9_3 + x_0_9_4 + x_0_9_5
                                 + x_0_9_6 + x_0_9_7 + x_0_9_8 + x_0_9_9 <= 0
 SumDrivers#40:                  >= 0
Bounds
      x_0_0_0 = 0
 0 <= x_0_0_1 <= 1
 0 <= x_0_0_2 <= 1
 0 <= x_0_0_3 <= 1
 0 <= x_0_0_4 <= 1
 0 <= x_0_0_5 <= 1
 0 <= x_0_0_6 <= 1
 0 <= x_0_0_7 <= 1
 0 <= x_0_0_8 <= 1
 0 <= x_0_0_9 <= 1
 0 <= x_0_1_0 <= 1
      x_0_1_1 = 0
 0 <= x_0_1_2 <= 1
 0 <= x_0_1_3 <= 1
 0 <= x_0_1_4 <= 1
 0 <= x_0_1_5 <= 1
 0 <= x_0_1_6 <= 1
 0 <= x_0_1_7 <= 1
 0 <= x_0_1_8 <= 1
 0 <= x_0_1_9 <= 1
 0 <= x_0_2_0 <= 1
 0 <= x_0_2_1 <= 1
      x_0_2_2 = 0
 0 <= x_0_2_3 <= 1
 0 <= x_0_2_4 <= 1
 0 <= x_0_2_5 <= 1
 0 <= x_0_2_6 <= 1
 0 <= x_0_2_7 <= 1
 0 <= x_0_2_8 <= 1
 0 <= x_0_2_9 <= 1
 0 <= x_0_3_0 <= 1
 0 <= x_0_3_1 <= 1
 0 <= x_0_3_2 <= 1
      x_0_3_3 = 0
 0 <= x_0_3_4 <= 1
 0 <= x_0_3_5 <= 1
 0 <= x_0_3_6 <= 1
 0 <= x_0_3_7 <= 1
 0 <= x_0_3_8 <= 1
 0 <= x_0_3_9 <= 1
 0 <= x_0_4_0 <= 1
 0 <= x_0_4_1 <= 1
 0 <= x_0_4_2 <= 1
 0 <= x_0_4_3 <= 1
      x_0_4_4 = 0
 0 <= x_0_4_5 <= 1
 0 <= x_0_4_6 <= 1
 0 <= x_0_4_7 <= 1
 0 <= x_0_4_8 <= 1
 0 <= x_0_4_9 <= 1
 0 <= x_0_5_0 <= 1
 0 <= x_0_5_1 <= 1
 0 <= x_0_5_2 <= 1
 0 <= x_0_5_3 <= 1
 0 <= x_0_5_4 <= 1
      x_0_5_5 = 0
 0 <= x_0_5_6 <= 1
 0 <= x_0_5_7 <= 1
 0 <= x_0_5_8 <= 1
 0 <= x_0_5_9 <= 1
 0 <= x_0_6_0 <= 1
 0 <= x_0_6_1 <= 1
 0 <= x_0_6_2 <= 1
 0 <= x_0_6_3 <= 1
 0 <= x_0_6_4 <= 1
 0 <= x_0_6_5 <= 1
      x_0_6_6 = 0
 0 <= x_0_6_7 <= 1
 0 <= x_0_6_8 <= 1
 0 <= x_0_6_9 <= 1
 0 <= x_0_7_0 <= 1
 0 <= x_0_7_1 <= 1
 0 <= x_0_7_2 <= 1
 0 <= x_0_7_3 <= 1
 0 <= x_0_7_4 <= 1
 0 <= x_0_7_5 <= 1
 0 <= x_0_7_6 <= 1
      x_0_7_7 = 0
 0 <= x_0_7_8 <= 1
 0 <= x_0_7_9 <= 1
 0 <= x_0_8_0 <= 1
 0 <= x_0_8_1 <= 1
 0 <= x_0_8_2 <= 1
 0 <= x_0_8_3 <= 1
 0 <= x_0_8_4 <= 1
 0 <= x_0_8_5 <= 1
 0 <= x_0_8_6 <= 1
 0 <= x_0_8_7 <= 1
      x_0_8_8 = 0
 0 <= x_0_8_9 <= 1
 0 <= x_0_9_0 <= 1
 0 <= x_0_9_1 <= 1
 0 <= x_0_9_2 <= 1
 0 <= x_0_9_3 <= 1
 0 <= x_0_9_4 <= 1
 0 <= x_0_9_5 <= 1
 0 <= x_0_9_6 <= 1
 0 <= x_0_9_7 <= 1
 0 <= x_0_9_8 <= 1
      x_0_9_9 = 0
 0 <= z_0_1 <= 1
 0 <= y_1 <= 1
 0 <= z_0_2 <= 1
 0 <= y_2 <= 1
 0 <= z_0_3 <= 1
 0 <= y_3 <= 1
 0 <= z_0_4 <= 1
 0 <= y_4 <= 1
 0 <= z_0_5 <= 1
 0 <= y_5 <= 1
 0 <= z_0_6 <= 1
 0 <= y_6 <= 1
 0 <= z_0_7 <= 1
 0 <= y_7 <= 1
 0 <= z_0_8 <= 1
 0 <= y_8 <= 1
 0 <= z_0_9 <= 1
 0 <= y_9 <= 1
 0 <= z_0_0 <= 1
Binaries
 x_0_0_0  x_0_0_1  x_0_0_2  x_0_0_3  x_0_0_4  x_0_0_5  x_0_0_6  x_0_0_7 
 x_0_0_8  x_0_0_9  z_0_1  y_1  z_0_2  y_2  z_0_3  y_3  z_0_4  y_4  z_0_5  y_5 
 z_0_6  y_6  z_0_7  y_7  z_0_8  y_8  z_0_9  y_9  z_0_0 
End
